# Solution for model GasLib-40
# Objective value = 4.5076163867541851e+01
loadshed[innode_1] 0
loadshed[innode_2] 0
loadshed[innode_3] 0
loadshed[innode_4] 0
loadshed[innode_5] 0
loadshed[innode_6] 0
loadshed[innode_7] 0
loadshed[innode_8] 0
loadshed[source_1] -6.6568018962045450e-02
loadshed[source_2] 0.0903887855966451
loadshed[source_3] 2.6130849305898129e-01
loadshed[sink_1] 0
loadshed[sink_2] 0
loadshed[sink_3] 0
loadshed[sink_4] 0
loadshed[sink_5] 0
loadshed[sink_6] 0
loadshed[sink_7] 0
loadshed[sink_8] 0
loadshed[sink_9] 0
loadshed[sink_10] 0
loadshed[sink_11] 0
loadshed[sink_12] 1
loadshed[sink_13] 0
loadshed[sink_14] 0
loadshed[sink_15] 0
loadshed[sink_16] 0
loadshed[sink_17] 0
loadshed[sink_18] 0
loadshed[sink_19] 0
loadshed[sink_20] 0
loadshed[sink_21] 1
loadshed[sink_22] 0
loadshed[sink_23] 0
loadshed[sink_24] 7.5624951037198584e-01
loadshed[sink_25] 0
loadshed[sink_26] 0
loadshed[sink_27] 0
loadshed[sink_28] 0
loadshed[sink_29] 0
flow[source_1,sink_3] 1.6861403438660392e+02
flow[innode_1,sink_16] 1.6354166666666970e+01
flow[innode_6,sink_13] -2.3007788577233512e+00
flow[sink_13,sink_14] -1.8654945524390019e+01
flow[sink_14,sink_10] -3.5009112191056687e+01
flow[sink_25,sink_26] 1.2837323965696663e+02
flow[sink_26,sink_9] 1.6354166666669244e+01
flow[sink_9,sink_18] 0
flow[sink_26,sink_4] 9.5664906323630760e+01
flow[sink_4,sink_20] -5.5508929808830544e+01
flow[sink_18,sink_6] -1.6354166666667879e+01
flow[sink_25,innode_8] -1.3590570105326753e+02
flow[sink_6,sink_7] -6.5416666666666671e+01
flow[sink_6,sink_22] 3.2708333333333641e+01
flow[sink_7,sink_24] 3.9863361324581459e+00
flow[sink_22,sink_1] 1.6354166666666970e+01
flow[sink_24,sink_21] 0
flow[sink_21,sink_12] 0
flow[sink_7,sink_5] -85.757169465793
flow[sink_5,sink_17] -1.0211133613245967e+02
flow[sink_17,sink_4] -1.3481966946579468e+02
flow[sink_17,sink_8] 1.6354166666668334e+01
flow[sink_3,sink_23] 16.3541666666697
flow[sink_8,sink_20] 0
flow[sink_25,sink_20] 7.1863096475497173e+01
flow[sink_25,sink_15] -7.8384022888140237e+01
flow[sink_15,sink_29] -5.3951334345140573e+01
flow[sink_29,sink_28] 1.6354166666667879e+01
flow[sink_29,sink_2] 5.7141021876333014e+01
flow[sink_2,sink_15] 4.0786855209666342e+01
flow[sink_29,innode_7] -1.4380068955480814e+02
flow[innode_4,sink_19] 4.5168555776385425e+01
flow[sink_19,innode_3] 4.1026591883153678e+01
flow[innode_4,innode_5] 7.1611389748005479e+01
flow[sink_27,innode_5] -7.1611389748005479e+01
flow[sink_27,sink_19] 5.5257223081338815e+01
flow[sink_10,sink_11] 3.2708333333333641e+01
flow[sink_10,innode_2] -4.3045020307903314e+01
flow[sink_10,innode_3] -4.1026591883153678e+01
flow[innode_6,sink_25] 2.3007788577233512e+00
flow[sink_11,innode_1] 1.6354166666666970e+01
flow[sink_19,innode_2] 4.3045020307903314e+01
flow[source_3,innode_4] 1.1677994552439091e+02
flow[source_2,innode_7] 1.4380068955480814e+02
flow[sink_3,innode_8] 1.3590570105326753e+02
pressure[innode_1] 7.6756548302729882e+01
pressure[innode_2] 7.9183356715362549e+01
pressure[innode_3] 7.9092507973394859e+01
pressure[innode_4] 81.01325
pressure[innode_5] 8.0963991910051050e+01
pressure[innode_6] 7.5206299338188614e+01
pressure[innode_7] 81.01325
pressure[innode_8] 8.0449637695941433e+01
pressure[source_1] 81.01325
pressure[source_2] 81.01325
pressure[source_3] 81.01325
pressure[sink_1] 2.5782153312036513e+00
pressure[sink_2] 7.5719698321280944e+01
pressure[sink_3] 8.0449637695941433e+01
pressure[sink_4] 5.4001963676754428e+01
pressure[sink_5] 4.1243044003958722e+01
pressure[sink_6] 4.6792929415910249e+00
pressure[sink_7] 5.5773078451912141e+00
pressure[sink_8] 4.8232515268476419e+01
pressure[sink_9] 6.5186208374628919e+01
pressure[sink_10] 7.6908249610333428e+01
pressure[sink_11] 7.6756548302729882e+01
pressure[sink_12] 1.01325
pressure[sink_13] 7.5218983147535383e+01
pressure[sink_14] 7.5252367761601278e+01
pressure[sink_15] 7.5586538228299474e+01
pressure[sink_16] 75.7348984679122
pressure[sink_17] 4.8849600463890042e+01
pressure[sink_18] 4.2425879988377853e+00
pressure[sink_19] 7.9183356715362549e+01
pressure[sink_20] 58.0743568699673
pressure[sink_21] 1.01325
pressure[sink_22] 3.6419844735586615e+00
pressure[sink_23] 8.0284919684281647e+01
pressure[sink_24] 1.01325
pressure[sink_25] 7.5206299338188614e+01
pressure[sink_26] 6.6165047458571337e+01
pressure[sink_27] 8.0369749698762888e+01
pressure[sink_28] 7.6871862619345819e+01
pressure[sink_29] 77.167144892963
interdiction[source_1,sink_3] 0
interdiction[innode_1,sink_16] 0
interdiction[innode_6,sink_13] 0
interdiction[sink_13,sink_14] 0
interdiction[sink_14,sink_10] 0
interdiction[sink_25,sink_26] 0
interdiction[sink_26,sink_9] 0
interdiction[sink_9,sink_18] 1
interdiction[sink_26,sink_4] 0
interdiction[sink_4,sink_20] 0
interdiction[sink_18,sink_6] 0
interdiction[sink_25,innode_8] 0
interdiction[sink_6,sink_7] 0
interdiction[sink_6,sink_22] 0
interdiction[sink_7,sink_24] 0
interdiction[sink_22,sink_1] 0
interdiction[sink_24,sink_21] 0
interdiction[sink_21,sink_12] 0
interdiction[sink_7,sink_5] 0
interdiction[sink_5,sink_17] 0
interdiction[sink_17,sink_4] 0
interdiction[sink_17,sink_8] 0
interdiction[sink_3,sink_23] 0
interdiction[sink_8,sink_20] 1
interdiction[sink_25,sink_20] 0
interdiction[sink_25,sink_15] 0
interdiction[sink_15,sink_29] 0
interdiction[sink_29,sink_28] 0
interdiction[sink_29,sink_2] 0
interdiction[sink_2,sink_15] 0
interdiction[sink_29,innode_7] 0
interdiction[innode_4,sink_19] 0
interdiction[sink_19,innode_3] 0
interdiction[innode_4,innode_5] 0
interdiction[sink_27,innode_5] 0
interdiction[sink_27,sink_19] 0
interdiction[sink_10,sink_11] 0
interdiction[sink_10,innode_2] 0
interdiction[sink_10,innode_3] 0
interdiction[innode_6,sink_25] 0
interdiction[sink_11,innode_1] 0
interdiction[sink_19,innode_2] 0
interdiction[source_3,innode_4] 0
interdiction[source_2,innode_7] 0
interdiction[sink_3,innode_8] 0
WCcheckFlow[source_1,sink_3] 39
WCcheckFlow[innode_1,sink_16] 1
WCcheckFlow[innode_6,sink_13] 13
WCcheckFlow[sink_13,sink_14] 12
WCcheckFlow[sink_14,sink_10] 11
WCcheckFlow[sink_25,sink_26] 15
WCcheckFlow[sink_26,sink_9] 1
WCcheckFlow[sink_9,sink_18] 0
WCcheckFlow[sink_26,sink_4] 13
WCcheckFlow[sink_4,sink_20] 1
WCcheckFlow[sink_18,sink_6] -1
WCcheckFlow[sink_25,innode_8] -36
WCcheckFlow[sink_6,sink_7] -4
WCcheckFlow[sink_6,sink_22] 2
WCcheckFlow[sink_7,sink_24] 3
WCcheckFlow[sink_22,sink_1] 1
WCcheckFlow[sink_24,sink_21] 2
WCcheckFlow[sink_21,sink_12] 1
WCcheckFlow[sink_7,sink_5] -8
WCcheckFlow[sink_5,sink_17] -9
WCcheckFlow[sink_17,sink_4] -11
WCcheckFlow[sink_17,sink_8] 1
WCcheckFlow[sink_3,sink_23] 1
WCcheckFlow[sink_8,sink_20] 0
WCcheckFlow[sink_25,sink_20] 0
WCcheckFlow[sink_25,sink_15] 6
WCcheckFlow[sink_15,sink_29] 5
WCcheckFlow[sink_29,sink_28] 1
WCcheckFlow[sink_29,sink_2] 1
WCcheckFlow[sink_2,sink_15] 0
WCcheckFlow[sink_29,innode_7] 2
WCcheckFlow[innode_4,sink_19] -4
WCcheckFlow[sink_19,innode_3] -5
WCcheckFlow[innode_4,innode_5] 2
WCcheckFlow[sink_27,innode_5] -1
WCcheckFlow[sink_27,sink_19] 0
WCcheckFlow[sink_10,sink_11] 3
WCcheckFlow[sink_10,innode_2] 1
WCcheckFlow[sink_10,innode_3] 6
WCcheckFlow[innode_6,sink_25] -14
WCcheckFlow[sink_11,innode_1] 2
WCcheckFlow[sink_19,innode_2] 0
WCcheckFlow[source_3,innode_4] -1
WCcheckFlow[source_2,innode_7] -1
WCcheckFlow[sink_3,innode_8] 37
